129
1000
1
59
66
144
182
37
42
68
97
13
25
28
229
62
136
129
148
233
35
117
127
156
177
39
102
27
81
103
243
49
184
23
168
70
60
80
156
238
1
221
51
126
160
174
238
90
201
55
68
60
165
72
10
148
198
108
106
210
37
197
105
144
208
70
36
35
115
42
185
66
97
203
136
249
101
59
2
2
209
42
221
196
22
61
127
49
70
113
216
244
173
173
247
179
20
31
200
143
48
92
180
100
71
16
72
160
169
87
247
56
26
235
29
108
36
84
180
203
150
214
136
75
105
197
124
179
135
95
170
